sat
(
  (define-fun C4_VM2 () Int
    0)
  (define-fun StorageProv1 () Int
    2000)
  (define-fun C3_VM1 () Int
    0)
  (define-fun C4_VM5 () Int
    0)
  (define-fun StorageProv3 () Int
    2000)
  (define-fun MemProv2 () Int
    7500)
  (define-fun StorageProv2 () Int
    2000)
  (define-fun ProcProv2 () Int
    4)
  (define-fun StorageProv6 () Int
    2000)
  (define-fun C2_VM3 () Int
    1)
  (define-fun C3_VM2 () Int
    0)
  (define-fun C3_VM6 () Int
    1)
  (define-fun C5_VM2 () Int
    1)
  (define-fun C1_VM2 () Int
    0)
  (define-fun C5_VM3 () Int
    1)
  (define-fun C2_VM5 () Int
    1)
  (define-fun C2_VM6 () Int
    0)
  (define-fun C5_VM5 () Int
    1)
  (define-fun C5_VM6 () Int
    1)
  (define-fun PriceProv3 () Int
    210)
  (define-fun C5_VM1 () Int
    0)
  (define-fun C3_VM3 () Int
    0)
  (define-fun PriceProv1 () Int
    210)
  (define-fun StorageProv5 () Int
    2000)
  (define-fun StorageProv4 () Int
    2000)
  (define-fun C4_VM3 () Int
    0)
  (define-fun C4_VM4 () Int
    1)
  (define-fun C2_VM1 () Int
    0)
  (define-fun ProcProv1 () Int
    4)
  (define-fun VM4Type () Int
    252)
  (define-fun MemProv6 () Int
    15000)
  (define-fun PriceProv2 () Int
    210)
  (define-fun ProcProv6 () Int
    8)
  (define-fun PriceProv4 () Int
    532)
  (define-fun ProcProv3 () Int
    4)
  (define-fun C2_VM4 () Int
    0)
  (define-fun MemProv4 () Int
    30000)
  (define-fun C3_VM4 () Int
    0)
  (define-fun C3_VM5 () Int
    0)
  (define-fun VM5Type () Int
    341)
  (define-fun ProcProv4 () Int
    8)
  (define-fun C2_VM2 () Int
    1)
  (define-fun C4_VM6 () Int
    0)
  (define-fun C1_VM3 () Int
    0)
  (define-fun VM6Type () Int
    278)
  (define-fun C1_VM5 () Int
    0)
  (define-fun C1_VM6 () Int
    0)
  (define-fun VM3Type () Int
    341)
  (define-fun MemProv5 () Int
    7500)
  (define-fun C1_VM4 () Int
    0)
  (define-fun PriceProv5 () Int
    210)
  (define-fun C4_VM1 () Int
    0)
  (define-fun PriceProv6 () Int
    420)
  (define-fun VM1Type () Int
    341)
  (define-fun C5_VM4 () Int
    0)
  (define-fun ProcProv5 () Int
    4)
  (define-fun MemProv3 () Int
    7500)
  (define-fun VM2Type () Int
    341)
  (define-fun MemProv1 () Int
    7500)
  (define-fun C1_VM1 () Int
    1)
)
(objectives
 ( 2969)
 ((+ 0 PriceProv1 PriceProv2 PriceProv3 PriceProv4 PriceProv5 PriceProv6) 1792)
)
(:added-eqs                   6433379
 :arith-eq-adapter            43331651
 :arith-bound-propagations-lp 886600
 :arith-conflicts             292
 :arith-diseq                 51931820
 :arith-fixed-eqs             79717
 :arith-lower                 53614340
 :arith-make-feasible         6512104
 :arith-max-columns           566
 :arith-max-rows              20
 :arith-upper                 53162033
 :binary-propagations         153586335
 :bv-bit2core                 862509
 :bv-dynamic-diseqs           72732309
 :bv->core-eq                 1066
 :conflicts                   133149
 :decisions                   30508504
 :del-clause                  94481765
 :final-checks                6102
 :max-memory                  306.48
 :maxsat-cores                2937
 :memory                      264.62
 :minimized-lits              3217341
 :mk-bool-var                 35227271
 :mk-clause                   94485307
 :mk-clause-binary            23195
 :num-allocs                  89716849268028.00
 :num-checks                  10471
 :pb-conflicts                373
 :pb-predicates               18
 :pb-propagations             74388
 :pb-resolves                 358
 :propagations                305498141
 :restarts                    419
 :rlimit-count                2024933096
 :solve-eqs-elim-vars         1
 :solve-eqs-steps             10
 :time                        339.25
 :total-time                  337.15)
